
Gurobi 11.0.3 (mac64[arm]) logging started Tue Feb 25 14:08:20 2025


Gurobi 11.0.3 (mac64[arm]) logging started Tue Feb 25 14:08:20 2025


Gurobi 11.0.3 (mac64[arm]) logging started Tue Feb 25 14:08:20 2025

